(set-logic UFDT)
(declare-datatypes ((nat 0)) (((zero) (s (s0 nat)))))
(declare-fun add (nat nat) nat)
(declare-fun leq (nat nat) Bool)
(assert (forall ((y nat)) (= (add zero y) y)))
(assert (forall ((x nat) (y nat)) (= (add (s x) y) (s (add x y)))))
(assert (forall ((y nat)) (leq zero y)))
(assert (forall ((x nat)) (not (leq (s x) zero))))
(assert (forall ((x nat) (y nat)) (= (leq (s x) (s y)) (leq x y))))
(assert (not (forall ((v0 nat) (v1 nat) (v2 nat) (v3 nat) (v4 nat) (v5 nat) (v6 nat) (v7 nat) (v8 nat) (v9 nat)) (= (add (add (s (s v7)) (add (s v8) v6)) (add (add (s (add (add v1 (s v0)) (s (s v4)))) (s v1)) (add (s (s (s (s (s (add (add zero (s v9)) (s (s v2)))))))) (add (s v3) (s v5))))) (add (add (s (add (add (add (add (s (s v4)) (s zero)) v0) v7) (s (s v6)))) (s (add (s v1) (s (s (s (s (add (add (add (s (s v9)) (s v1)) (s v8)) (add (s v3) (s v5)))))))))) v2)))))
(check-sat)
